unsat
(:added-eqs                       115
 :arith-eq-adapter                18
 :arith-bound-propagations-lp     6
 :arith-branch                    1
 :arith-conflicts                 29
 :arith-cube-calls                1
 :arith-diseq                     29
 :arith-fixed-eqs                 1
 :arith-gcd-calls                 10
 :arith-gomory-cuts               1
 :arith-grobner-calls             18
 :arith-grobner-conflicts         4
 :arith-hnf-calls                 1
 :arith-hnf-cuts                  1
 :arith-horner-calls              5
 :arith-horner-cross-nested-forms 251
 :arith-lower                     126
 :arith-make-feasible             148
 :arith-max-columns               51
 :arith-max-rows                  21
 :arith-nla-add-bounds            8
 :arith-nla-lemmas                14
 :arith-nla-propagate-bounds      9
 :arith-nla-propagate-eq          28
 :arith-nra-calls                 11
 :arith-patches                   10
 :arith-patches-success           8
 :arith-upper                     201
 :binary-propagations             464
 :card2bv-rewrites                5
 :conflicts                       52
 :decisions                       326
 :del-clause                      31
 :elim-unconstrained              3
 :final-checks                    35
 :max-memory                      61.83
 :memory                          20.51
 :minimized-lits                  5
 :mk-bool-var                     126
 :mk-clause                       102
 :mk-clause-binary                90
 :num-allocs                      1959763215
 :num-checks                      1
 :propagations                    709
 :rlimit-count                    71271080
 :sat-ate                         255
 :sat-backjumps                   195456
 :sat-backtracks                  40
 :sat-bce                         368
 :sat-conflicts                   195497
 :sat-decisions                   355884
 :sat-del-clause                  246554
 :sat-elim-bool-vars-res          15966
 :sat-elim-clauses                8327
 :sat-elim-literals               76413
 :sat-gc-clause                   134467
 :sat-minimized-lits              3456374
 :sat-mk-clause-2ary              51687
 :sat-mk-clause-3ary              30796
 :sat-mk-clause-nary              300654
 :sat-mk-var                      26652
 :sat-probing-assigned            3
 :sat-propagations-2ary           22415065
 :sat-propagations-nary           48225567
 :sat-restarts                    12494
 :sat-scc-elim-binary             454
 :sat-scc-elim-vars               556
 :sat-subs-resolution             10426
 :sat-subs-resolution-dyn         299064
 :sat-subsumed                    23113
 :sat-tr                          789
 :sat-units                       2885
 :time                            18.08
 :total-time                      18.10)
